64629.0
6, 12, 36, 37, 102, 121, 128, 137, 147, 151, 216, 264, 269, 273, 281, 303, 331, 334, 347, 373, 382, 419, 426, 469, 476, 479, 494, 573, 599, 612, 657, 672, 683, 693, 723, 732, 737, 770, 775, 807, 822, 824, 830, 835, 838, 845, 849, 855, 933, 945, 967, 984, 1017, 1034, 1039, 1057, 1058, 1099, 1138, 1143, 1239, 1242, 1272, 1322, 1331, 1341, 1353, 1361, 1369, 1389, 1394, 1403, 1408, 1419, 1472, 1483, 1507, 1511, 1532, 1539, 1544, 1545, 1548, 1566, 1567, 1576, 1581, 1604, 1617, 1654, 1664, 1665, 1667, 1672, 1692, 1713, 1716, 1761, 1769, 1873, 1881, 1882, 1889, 1915, 1941, 1953, 1975, 1981, 1982